SCIP version 5.0.0 [precision: 8 byte] [memory: block] [mode: optimized] [LP solver: NONE] [GitHash: 3bbd232]
Copyright (C) 2002-2017 Konrad-Zuse-Zentrum fuer Informationstechnik Berlin (ZIB)

External codes: 
  Readline EditLine w  GNU library for command line editing (gnu.org/s/readline)
  CppAD 20160000.1     Algorithmic Differentiation of C++ algorithms developed by B. Bell (www.coin-or.org/CppAD)
  ZLIB 1.2.5           General purpose compression library by J. Gailly and M. Adler (zlib.net)
  GMP 6.1.2            GNU Multiple Precision Arithmetic Library developed by T. Granlund (gmplib.org)

user parameter file <scip.set> not found - using default parameters

read problem <../../Split_data/output/seismic-bumps/0/4_sample_seismic-bumps.logreg>
============

File name	:	../../Split_data/output/seismic-bumps/0/4_sample_seismic-bumps.logreg
Problem name 	:	4_sample_seismic-bumps
Number of data	:	2067
Number of var	:	21
The given data has linear dependence
4 sets of column vector are linearly dependent:
{ 2 3}, { 4 5 6}, { 7 8}, { 13 14 15}, 

[dim=1] time: 0.036331
[dim=2] time: 0.072097
[dim=3] time: 0.105672
[dim=4] time: 0.138485
[dim=5] time: 0.168975
[dim=6] time: 0.194281
[dim=7] Time of forward = 0.213811sec.
AIC: 875.327
k: 6

[dim=17] time: 0.086216
[dim=16] time: 0.111631
[dim=15] time: 0.136624
[dim=14] time: 0.163759
[dim=13] time: 0.193627
[dim=12] time: 0.209723
[dim=11] Time of backward = 0.229113sec.
AIC: 878.976
k: 12
